50 50 99
1 1 0.1030000000000000
1 2 0.01
2 2 0.2030000000000000
2 3 0.01
3 3 0.3030000000000000
3 4 0.01
4 4 0.4030000000000000
4 5 0.01
5 5 0.5030000000000000
5 6 0.01
6 6 0.6030000000000001
6 7 0.01
7 7 0.7030000000000001
7 8 0.01
8 8 0.8030000000000000
8 9 0.01
9 9 0.9030000000000000
9 10 0.01
10 10 1.003000000000000
10 11 0.01
11 11 1.103000000000000
11 12 0.01
12 12 1.203000000000000
12 13 0.01
13 13 1.303000000000000
13 14 0.01
14 14 1.403000000000000
14 15 0.01
15 15 1.503000000000000
15 16 0.01
16 16 1.603000000000000
16 17 0.01
17 17 1.703000000000000
17 18 0.01
18 18 1.803000000000000
18 19 0.01
19 19 1.903000000000000
19 20 0.01
20 20 2.003000000000000
20 21 0.01
21 21 2.103000000000000
21 22 0.01
22 22 2.203000000000000
22 23 0.01
23 23 2.303000000000000
23 24 0.01
24 24 2.403000000000000
24 25 0.01
25 25 2.503000000000000
25 26 0.01
26 26 2.603000000000000
26 27 0.01
27 27 2.703000000000000
27 28 0.01
28 28 2.803000000000000
28 29 0.01
29 29 2.903000000000000
29 30 0.01
30 30 3.003000000000000
30 31 0.01
31 31 3.103000000000000
31 32 0.01
32 32 3.203000000000000
32 33 0.01
33 33 3.303000000000000
33 34 0.01
34 34 3.403000000000000
34 35 0.01
35 35 3.503000000000000
35 36 0.01
36 36 3.603000000000000
36 37 0.01
37 37 3.703000000000000
37 38 0.01
38 38 3.803000000000000
38 39 0.01
39 39 3.903000000000000
39 40 0.01
40 40 4.003000000000000
40 41 0.01
41 41 4.103000000000001
41 42 0.01
42 42 4.203000000000000
42 43 0.01
43 43 4.303000000000000
43 44 0.01
44 44 4.403000000000000
44 45 0.01
45 45 4.503000000000000
45 46 0.01
46 46 4.603000000000001
46 47 0.01
47 47 4.703000000000000
47 48 0.01
48 48 4.803000000000001
48 49 0.01
49 49 4.903000000000000
49 50 0.01
50 50 5.003000000000000
