50 50 50
1 1 -9.905000000000001
2 2 -9.810000000000000
3 3 -9.715000000000000
4 4 -9.619999999999999
5 5 -9.525000000000000
6 6 -9.430000000000000
7 7 -9.335000000000001
8 8 -9.240000000000000
9 9 -9.145000000000000
10 10 -9.050000000000001
11 11 -8.955000000000000
12 12 -8.859999999999999
13 13 -8.765000000000001
14 14 -8.670000000000000
15 15 -8.575000000000001
16 16 -8.480000000000000
17 17 -8.385000000000000
18 18 -8.289999999999999
19 19 -8.195000000000000
20 20 -8.100000000000001
21 21 -8.004999999999999
22 22 -7.910000000000000
23 23 -7.815000000000000
24 24 -7.720000000000001
25 25 -7.625000000000000
26 26 -7.530000000000000
27 27 -7.435000000000000
28 28 -7.340000000000000
29 29 -7.245000000000000
30 30 -7.150000000000000
31 31 -7.055000000000000
32 32 -6.959999999999999
33 33 -6.865000000000000
34 34 -6.770000000000000
35 35 -6.675000000000000
36 36 -6.580000000000000
37 37 -6.485000000000001
38 38 -6.390000000000001
39 39 -6.295000000000000
40 40 -6.200000000000000
41 41 -6.105000000000000
42 42 -6.010000000000000
43 43 -5.915000000000000
44 44 -5.820000000000000
45 45 -5.725000000000000
46 46 -5.629999999999999
47 47 -5.535000000000000
48 48 -5.440000000000000
49 49 -5.345000000000000
50 50 -5.250000000000000
