50 50 50
1 1 1.000000000000000
2 2 1.000000000000000
3 3 1.000000000000000
4 4 1.000000000000000
5 5 1.000000000000000
6 6 1.000000000000000
7 7 1.000000000000000
8 8 1.000000000000000
9 9 1.000000000000000
10 10 1.000000000000000
11 11 1.000000000000000
12 12 1.000000000000000
13 13 1.000000000000000
14 14 1.000000000000000
15 15 1.000000000000000
16 16 1.000000000000000
17 17 1.000000000000000
18 18 1.000000000000000
19 19 1.000000000000000
20 20 1.000000000000000
21 21 1.000000000000000
22 22 1.000000000000000
23 23 1.000000000000000
24 24 1.000000000000000
25 25 1.000000000000000
26 26 1.000000000000000
27 27 1.000000000000000
28 28 1.000000000000000
29 29 1.000000000000000
30 30 1.000000000000000
31 31 1.000000000000000
32 32 1.000000000000000
33 33 1.000000000000000
34 34 1.000000000000000
35 35 1.000000000000000
36 36 1.000000000000000
37 37 1.000000000000000
38 38 1.000000000000000
39 39 1.000000000000000
40 40 1.000000000000000
41 41 1.000000000000000
42 42 1.000000000000000
43 43 1.000000000000000
44 44 1.000000000000000
45 45 1.000000000000000
46 46 1.000000000000000
47 47 1.000000000000000
48 48 1.000000000000000
49 49 1.000000000000000
50 50 1.000000000000000
