50 50 50
1 1 -0.9470000000000000 0.0
2 2 -0.8970000000000000 0.0
3 3 -0.8470000000000000 0.0
4 4 -0.7970000000000000 0.0
5 5 -0.7470000000000000 0.0
6 6 -0.6970000000000000 0.0
7 7 -0.6469999999999999 0.0
8 8 -0.5970000000000000 0.0
9 9 -0.5470000000000000 0.0
10 10 -0.4970000000000000 0.0
11 11 -0.4470000000000000 0.0
12 12 -0.3969999999999999 0.0
13 13 -0.3470000000000000 0.0
14 14 -0.2969999999999999 0.0
15 15 -0.2470000000000000 0.0
16 16 -0.1970000000000000 0.0
17 17 -0.1469999999999999 0.0
18 18 -0.09699999999999998 0.0
19 19 -0.04699999999999993 0.0
20 20 0.003000000000000000 0.0
21 21 0.05300000000000005 0.0
22 22 0.1030000000000001 0.0
23 23 0.1530000000000001 0.0
24 24 0.2030000000000002 0.0
25 25 0.2530000000000000 0.0
26 26 0.3030000000000000 0.0
27 27 0.3530000000000001 0.0
28 28 0.4030000000000001 0.0
29 29 0.4530000000000002 0.0
30 30 0.5030000000000000 0.0
31 31 0.5530000000000000 0.0
32 32 0.6030000000000001 0.0
33 33 0.6530000000000001 0.0
34 34 0.7030000000000002 0.0
35 35 0.7530000000000000 0.0
36 36 0.8030000000000000 0.0
37 37 0.8530000000000001 0.0
38 38 0.9030000000000001 0.0
39 39 0.9530000000000002 0.0
40 40 1.003000000000000 0.0
41 41 1.053000000000000 0.0
42 42 1.103000000000000 0.0
43 43 1.153000000000000 0.0
44 44 1.203000000000000 0.0
45 45 1.253000000000000 0.0
46 46 1.303000000000000 0.0
47 47 1.353000000000000 0.0
48 48 1.403000000000000 0.0
49 49 1.453000000000000 0.0
50 50 1.503000000000000 0.0
