50 50 50
1 1 1.030000000000000 -0.1
2 2 2.030000000000000 -0.1
3 3 3.030000000000000 -0.1
4 4 4.030000000000000 -0.1
5 5 5.030000000000000 -0.1
6 6 6.030000000000000 -0.1
7 7 7.030000000000000 -0.1
8 8 8.029999999999999 -0.1
9 9 9.029999999999999 -0.1
10 10 10.03000000000000 -0.1
11 11 11.03000000000000 -0.1
12 12 12.03000000000000 -0.1
13 13 13.03000000000000 -0.1
14 14 14.03000000000000 -0.1
15 15 15.03000000000000 -0.1
16 16 16.03000000000000 -0.1
17 17 17.03000000000000 -0.1
18 18 18.03000000000000 -0.1
19 19 19.03000000000000 -0.1
20 20 20.03000000000000 -0.1
21 21 21.03000000000000 -0.1
22 22 22.03000000000000 -0.1
23 23 23.03000000000000 -0.1
24 24 24.03000000000000 -0.1
25 25 25.03000000000000 -0.1
26 26 26.03000000000000 -0.1
27 27 27.03000000000000 -0.1
28 28 28.03000000000000 -0.1
29 29 29.03000000000000 -0.1
30 30 30.03000000000000 -0.1
31 31 31.03000000000000 -0.1
32 32 32.03000000000000 -0.1
33 33 33.03000000000000 -0.1
34 34 34.03000000000000 -0.1
35 35 35.03000000000000 -0.1
36 36 36.03000000000000 -0.1
37 37 37.03000000000000 -0.1
38 38 38.03000000000000 -0.1
39 39 39.03000000000000 -0.1
40 40 40.03000000000000 -0.1
41 41 41.03000000000000 -0.1
42 42 42.03000000000000 -0.1
43 43 43.03000000000000 -0.1
44 44 44.03000000000000 -0.1
45 45 45.03000000000000 -0.1
46 46 46.03000000000000 -0.1
47 47 47.03000000000000 -0.1
48 48 48.03000000000000 -0.1
49 49 49.03000000000000 -0.1
50 50 50.03000000000000 -0.1
