50 50 50
1 1 0.1030000000000000
2 2 0.2030000000000000
3 3 0.3030000000000000
4 4 0.4030000000000000
5 5 0.5030000000000000
6 6 0.6030000000000001
7 7 0.7030000000000001
8 8 0.8030000000000000
9 9 0.9030000000000000
10 10 1.003000000000000
11 11 1.103000000000000
12 12 1.203000000000000
13 13 1.303000000000000
14 14 1.403000000000000
15 15 1.503000000000000
16 16 1.603000000000000
17 17 1.703000000000000
18 18 1.803000000000000
19 19 1.903000000000000
20 20 2.003000000000000
21 21 2.103000000000000
22 22 2.203000000000000
23 23 2.303000000000000
24 24 2.403000000000000
25 25 2.503000000000000
26 26 2.603000000000000
27 27 2.703000000000000
28 28 2.803000000000000
29 29 2.903000000000000
30 30 3.003000000000000
31 31 3.103000000000000
32 32 3.203000000000000
33 33 3.303000000000000
34 34 3.403000000000000
35 35 3.503000000000000
36 36 3.603000000000000
37 37 3.703000000000000
38 38 3.803000000000000
39 39 3.903000000000000
40 40 4.003000000000000
41 41 4.103000000000001
42 42 4.203000000000000
43 43 4.303000000000000
44 44 4.403000000000000
45 45 4.503000000000000
46 46 4.603000000000001
47 47 4.703000000000000
48 48 4.803000000000001
49 49 4.903000000000000
50 50 5.003000000000000
