50 50 50
1 1 -3.019000000000000
2 2 -3.038000000000000
3 3 -3.057000000000000
4 4 -3.076000000000000
5 5 -3.095000000000000
6 6 -3.114000000000000
7 7 -3.133000000000000
8 8 -3.152000000000000
9 9 -3.171000000000000
10 10 -3.190000000000000
11 11 -3.209000000000000
12 12 -3.228000000000000
13 13 -3.247000000000000
14 14 -3.266000000000000
15 15 -3.285000000000000
16 16 -3.304000000000000
17 17 -3.323000000000000
18 18 -3.342000000000000
19 19 -3.361000000000000
20 20 -3.380000000000000
21 21 -3.399000000000000
22 22 -3.418000000000000
23 23 -3.437000000000000
24 24 -3.456000000000000
25 25 -3.475000000000000
26 26 -3.494000000000000
27 27 -3.513000000000000
28 28 -3.532000000000000
29 29 -3.551000000000000
30 30 -3.570000000000000
31 31 -3.589000000000000
32 32 -3.608000000000000
33 33 -3.627000000000000
34 34 -3.646000000000000
35 35 -3.665000000000000
36 36 -3.684000000000000
37 37 -3.703000000000000
38 38 -3.722000000000000
39 39 -3.741000000000000
40 40 -3.760000000000000
41 41 -3.779000000000000
42 42 -3.798000000000000
43 43 -3.817000000000000
44 44 -3.836000000000000
45 45 -3.855000000000000
46 46 -3.874000000000000
47 47 -3.893000000000000
48 48 -3.912000000000000
49 49 -3.931000000000000
50 50 -3.950000000000000
